(set-logic QF_BV)
(declare-fun _substvar_472_ () (_ BitVec 16))
(declare-fun _substvar_491_ () (_ BitVec 16))
(declare-fun _substvar_481_ () (_ BitVec 16))
(declare-fun _substvar_476_ () (_ BitVec 16))
(declare-fun _substvar_486_ () (_ BitVec 16))
(declare-fun _substvar_457_ () (_ BitVec 16))
(declare-fun _substvar_467_ () (_ BitVec 16))
(declare-fun _substvar_456_ () (_ BitVec 16))
(declare-fun _substvar_482_ () (_ BitVec 16))
(declare-fun _substvar_461_ () (_ BitVec 16))
(declare-fun _substvar_496_ () (_ BitVec 16))
(declare-fun _substvar_487_ () (_ BitVec 16))
(declare-fun _substvar_466_ () (_ BitVec 16))
(assert (let ((?v_27 (bvadd (_ bv0 32) (bvsub (bvadd (_ bv0 32) ((_ zero_extend 16) _substvar_496_)) (_ bv0 32))))) (let ((?v_3 (bvadd ?v_27 (_ bv4 32)))) (let ((?v_33 (bvadd ?v_3 (bvsub (bvadd (bvadd (bvadd ?v_3 (_ bv59 32)) (_ bv0 32)) ((_ zero_extend 16) _substvar_491_)) ?v_3)))) (let ((?v_4 (bvadd ?v_33 (_ bv4 32))) (?v_41 ((_ zero_extend 16) _substvar_487_))) (let ((?v_39 (bvadd ?v_4 (bvsub (bvadd (bvadd (bvadd ?v_4 (_ bv63 32)) ?v_41) ((_ zero_extend 16) _substvar_486_)) ?v_4)))) (let ((?v_5 (bvadd ?v_39 (_ bv4 32))) (?v_46 ((_ zero_extend 16) _substvar_482_))) (let ((?v_44 (bvadd ?v_5 (bvsub (bvadd (bvadd (bvadd ?v_5 (_ bv64 32)) ?v_46) ((_ zero_extend 16) _substvar_481_)) ?v_5)))) (let ((?v_6 (bvadd ?v_44 (_ bv4 32)))) (let ((?v_51 (bvadd ?v_6 (bvsub (bvadd (bvadd (bvadd ?v_6 (_ bv59 32)) (_ bv0 32)) ((_ zero_extend 16) _substvar_476_)) ?v_6)))) (let ((?v_7 (bvadd ?v_51 (_ bv4 32)))) (let ((?v_53 (bvadd ?v_7 (bvsub (bvadd (bvadd (bvadd ?v_7 (_ bv60 32)) (_ bv0 32)) ((_ zero_extend 16) _substvar_472_)) ?v_7)))) (let ((?v_8 (bvadd ?v_53 (_ bv4 32))) (?v_52 ((_ zero_extend 16) _substvar_467_))) (let ((?v_55 (bvadd ?v_8 (bvsub (bvadd (bvadd (bvadd ?v_8 (_ bv62 32)) ?v_52) ((_ zero_extend 16) _substvar_466_)) ?v_8)))) (let ((?v_9 (bvadd ?v_55 (_ bv4 32)))) (let ((?v_57 (bvadd ?v_9 (bvsub (bvadd (bvadd (bvadd ?v_9 (_ bv59 32)) (_ bv0 32)) ((_ zero_extend 16) _substvar_461_)) ?v_9)))) (let ((?v_10 (bvadd ?v_57 (_ bv4 32))) (?v_56 ((_ zero_extend 16) _substvar_457_))) (let ((?v_58 (bvadd ?v_10 (bvsub (bvadd (bvadd (bvadd ?v_10 (_ bv57 32)) ?v_56) ((_ zero_extend 16) _substvar_456_)) ?v_10)))) (let ((?v_59 (bvadd ?v_58 (_ bv4 32)))) (and true true true true true true true true true true true true true true true true true true true true true true true true (bvslt (bvadd ?v_59 (_ bv42 32)) (_ bv0 32)) true true true true true true true true true true true true true true true true true true true true true true true true true true true true true true true true true true true true true true true true true true true true true true true true true true true true true true true true true true true true true true true true true true true true true true true true true true true true true true true true true true true true true true true true true true true true true true true true true true true true true true true true true true true true))))))))))))))))))))
(check-sat)
(exit)
